p cnf 23 27
-1 23 0 
-2 23 0 
-3 -1 -2 23 0 
-4 -5 23 0 
-6 23 0 
-7 -8 -9 23 0 
-10 -2 -6 23 0 
-6 -11 23 0 
-3 -12 -6 23 0 
-3 -6 23 0 
-2 -4 23 0 
-13 -4 -6 23 0 
-13 -5 -6 23 0 
-5 23 0 
-13 -5 23 0 
-14 23 0 
-1 -5 -6 23 0 
-15 23 0 
-16 23 0 
-17 23 0 
-18 -6 23 0 
-19 -20 23 0 
-6 -21 23 0 
-4 23 0 
-3 -6 -11 23 0 
-2 -5 -6 23 0 
-22 -4 23 0 
